StudentsNr = 10;
InstructorsNr = 46;
DaysNr = 1;
SlotsPerDay = 10;
AvailabilitySlotsLenght = 5;
RoomNr = 2;
ProgrammNr = 2;
DegreeNr = 2;
RolesNr = 2;
CoursesNr = 3;
InstructorsProgramm = [{1, 2}, {1}, {1}, {1}, {1, 2}, {2}, {1, 2}, {1, 2}, {1}, {2}, {2}, {1, 2}, {2}, {2}, {1}, {1}, {1}, {1}, {2}, {2}, {2}, {1}, {1}, {1, 2}, {1, 2}, {1}, {2}, {1, 2}, {2}, {1, 2}, {1}, {1}, {1}, {2}, {2}, {2}, {2}, {2}, {1, 2}, {1}, {1}, {1}, {1}, {2}, {2}, {2}];
InstructorRolesPerProgramm = [|{2, 5, 7, 8, 9, 15, 16, 18, 23, 25, 30, 32, 33, 43}, {1, 3, 5, 7, 18, 26, 33, 42}|{5, 7, 8, 11, 13, 14, 19, 25, 27, 30, 34, 36, 37, 44, 46}, {1, 5, 7, 11, 13, 27, 29, 34, 35}|];
InstructorsAvailability = [|0, 1, |0, 1, |1, 1, |0, 1, |0, 1, |0, 0, |1, 1, |0, 0, |0, 1, |1, 1, |0, 1, |1, 1, |0, 0, |1, 0, |0, 0, |0, 1, |1, 1, |0, 0, |0, 1, |0, 0, |0, 1, |1, 1, |0, 1, |0, 1, |0, 1, |1, 0, |1, 1, |1, 1, |0, 0, |0, 0, |0, 1, |1, 1, |1, 1, |0, 1, |0, 0, |0, 1, |1, 0, |1, 1, |1, 1, |0, 1, |1, 1, |1, 1, |1, 1, |0, 1, |1, 1, |1, 1|];
StudentsProgramm = [2, 2, 2, 1, 2, 1, 1, 1, 2, 1];
StudentsDegree = [2, 2, 1, 1, 1, 2, 1, 2, 2, 2];
StudentsSupervisorId = [14, 36, 25, 26, 5, 41, 18, 28, 29, 42];
StudentsCourseIds = [{2}, {1}, {1, 2, 3}, {1, 2, 3}, {1, 2, 3}, {2}, {1, 2, 3}, {1}, {2}, {2}];
StudentsAvailability = [|1, 1, |1, 1, |0, 0, |1, 1, |0, 0, |1, 1, |0, 1, |0, 1, |0, 0, |1, 1|];
TheoryticalMinCard = [0, 0, 0, 0, 0, 0, 0, 1, 0, 0];
CoursesInstructorIds = [{1, 5, 6, 7, 11, 13, 14, 15, 16, 18, 20, 21, 24, 25, 26, 27, 29, 30, 34, 35, 36, 38, 39, 40, 41, 42, 43, 44, 45, 46}, {1, 2, 4, 7, 8, 10, 12, 14, 17, 19, 27, 29, 31, 32, 33, 37, 41, 42}, {1, 4, 6, 8, 9, 12, 14, 17, 19, 20, 21, 23, 24, 26, 27, 28, 29, 30, 32, 34, 35, 37, 39, 40, 41, 42, 44, 46}];
RolesDemands = [4, 1];
RolesContinuity = [2];
ExamLen = [2, 2, 2, 2, 2, 2, 2, 2, 2, 2];
LunchTsMinLen = 0;
LunchStarts = [2..7];
SupervisorAvailable = 5;
OptimalLunchLenght = [3, 0];
OptimalStartTs = [1, 0];
OptimalFinishTs = [1, 9];
MinimizeRooms = 500;
RolesSoftContinuity = [|1, 2|3, 0|];
SameDegreeInRoom = 10;
Mergeability = 2;
